language ESSENCE' 1.0
letting AssignmentMatrix be [[0, 0, 0, 0, 0, 0, 0, 0, 0, 0, 0, 0, 0, 0, 1, 1, 1, 1, 1, 1, 1, 1, 1, 1, 1, 1], 
[0, 0, 1, 1, 1, 0, 0, 0, 0, 0, 1, 0, 0, 1, 0, 0, 0, 0, 0, 0, 0, 0, 0, 1, 1, 1], 
[0, 0, 0, 0, 0, 0, 0, 0, 0, 0, 0, 0, 0, 0, 0, 0, 0, 0, 0, 0, 0, 0, 0, 0, 0, 0], 
[0, 1, 0, 0, 0, 1, 1, 1, 0, 0, 0, 0, 0, 0, 0, 0, 0, 0, 0, 0, 0, 0, 0, 0, 0, 0], 
[0, 0, 0, 0, 0, 0, 0, 0, 1, 1, 0, 0, 0, 0, 0, 0, 0, 0, 0, 0, 0, 0, 0, 0, 0, 0]]
letting OccupancyVector be [0, 1, 1, 1, 1, 1, 1, 1, 1, 1, 1, 0, 0, 1, 1, 1, 1, 1, 1, 1, 1, 1, 1, 1, 1, 1]
letting Price be [0, 210, 116, 116, 116, 210, 210, 210, 210, 210, 116, 0, 0, 116, 116, 116, 116, 116, 116, 116, 116, 116, 116, 350, 350, 350]
letting VMType be [409, 341, 433, 433, 433, 341, 341, 341, 341, 341, 433, 426, 472, 433, 433, 433, 433, 433, 433, 433, 433, 433, 433, 316, 316, 316]
